RT is False
Default write of storage_offers_DA.csv just to have a file (but constraint should be inactive)
Reading model...
...model read.
creating competitive generators file...
...competitive generators recorded.
Loading data...
.. day-ahead data read.
Compiling instance...
...instance created.
Creating Offer Mitigation (model will solve as dispatch if TRUE)...
...storage offer mitigation file created
Converting model to MPEC...
...converted
NOTE: initial MIP solve with only storage competitive to get feasible solution
Solving...

Welcome to IBM(R) ILOG(R) CPLEX(R) Interactive Optimizer 12.9.0.0
  with Simplex, Mixed Integer & Barrier Optimizers
5725-A06 5725-A29 5724-Y48 5724-Y49 5724-Y54 5724-Y55 5655-Y21
Copyright IBM Corp. 1988, 2019.  All Rights Reserved.

Type 'help' for a list of available commands.
Type 'help' followed by a command name for more
information on commands.

CPLEX> Logfile 'cplex.log' closed.
Logfile 'C:\Users\llavin\Desktop\test826\logs\tmpri2vhk_d.cplex.log' open.
CPLEX> New value for parallel optimization mode: -1
CPLEX> New value for mixed integer optimality gap tolerance: 0.05
CPLEX> New value for feasibility tolerance: 1e-09
CPLEX> New value for deterministic time limit in ticks: 500000
CPLEX> Problem 'C:\Users\llavin\Desktop\test826\logs\tmpsrxd7nxy.pyomo.lp' read.
Read time = 0.23 sec. (14.72 ticks)
CPLEX> Problem name         : C:\Users\llavin\Desktop\test826\logs\tmpsrxd7nxy.pyomo.lp
Objective sense      : Maximize
Variables            :   53805  [Nneg: 1,  Box: 22000,  Free: 4464,
                                 Binary: 27340]
Objective nonzeros   :    9019
Linear constraints   :  123205  [Less: 41346,  Greater: 59096,  Equal: 22763]
  Nonzeros           :  291718
  RHS nonzeros       :   67460

Variables            : Min LB: -5000.000        Max UB: 1000000.       
Objective nonzeros   : Min   : 0.1000000        Max   : 2500.000       
Linear constraints   :
  Nonzeros           : Min   : 0.1000000        Max   : 1000000.       
  RHS nonzeros       : Min   : 0.1000000        Max   : 1000000.       
CPLEX> CPXPARAM_Parallel                                -1
CPXPARAM_Simplex_Tolerances_Feasibility          1.0000000000000001e-09
CPXPARAM_DetTimeLimit                            500000
CPXPARAM_MIP_Tolerances_MIPGap                   0.050000000000000003
Tried aggregator 3 times.
MIP Presolve eliminated 88893 rows and 19191 columns.
MIP Presolve added 3338 rows and 0 columns.
MIP Presolve modified 24784 coefficients.
Aggregator did 12968 substitutions.
Reduced MIP has 24682 rows, 21064 columns, and 70474 nonzeros.
Reduced MIP has 8323 binaries, 0 generals, 0 SOSs, and 0 indicators.
Presolve time = 0.28 sec. (167.90 ticks)
Probing fixed 376 vars, tightened 4114 bounds.
Probing time = 0.06 sec. (18.30 ticks)
Tried aggregator 2 times.
MIP Presolve eliminated 849 rows and 755 columns.
MIP Presolve modified 2999 coefficients.
Aggregator did 36 substitutions.
Reduced MIP has 23797 rows, 20273 columns, and 67908 nonzeros.
Reduced MIP has 7946 binaries, 0 generals, 0 SOSs, and 0 indicators.
Presolve time = 0.11 sec. (91.64 ticks)
Probing fixed 0 vars, tightened 223 bounds.
Probing time = 0.13 sec. (21.93 ticks)
Clique table members: 44569.
MIP emphasis: balance optimality and feasibility.
MIP search method: dynamic search.
Parallel mode: opportunistic, using up to 32 threads.
Root relaxation solution time = 0.44 sec. (631.64 ticks)

        Nodes                                         Cuts/
   Node  Left     Objective  IInf  Best Integer    Best Bound    ItCnt     Gap

      0     0     7078.7690    95                   7078.7690     5562         
      0     0     7078.7690     5                    Cuts: 25     5575         
      0     0     7077.4920     4                     Cuts: 3     5580         
      0     0     7076.1264     8                     Cuts: 4     5584         
      0     0     7076.1264     8                     Cuts: 2     5586         
      0     0     7076.1264     8                   Covers: 1     5587         
      0    19    infeasible                           Cuts: 5     6426         
Elapsed time = 5.69 sec. (3232.44 ticks, tree = 0.02 MB, solutions = 0)
*   119    59      integral     0     7068.9793     7069.3359     6846    0.01%
*   156    52      integral     0     7068.9800     7069.3359     6815    0.01%

Cover cuts applied:  9
Implied bound cuts applied:  4
Flow cuts applied:  17
Gomory fractional cuts applied:  6

Root node processing (before b&c):
  Real time             =    4.34 sec. (3221.81 ticks)
Parallel b&c, 32 threads:
  Real time             =    2.61 sec. (339.95 ticks)
  Sync time (average)   =    1.01 sec.
  Wait time (average)   =    0.00 sec.
                          ------------
Total (root+branch&cut) =    6.95 sec. (3561.75 ticks)

Solution pool: 4 solutions saved.

MIP - Integer optimal, tolerance (0.05/1e-06):  Objective =  7.0689800050e+03
Current MIP best bound =  7.0693358514e+03 (gap = 0.355846, 0.01%)
Solution time =    6.98 sec.  Iterations = 12445  Nodes = 402 (7)
Deterministic time = 3561.91 ticks  (510.01 ticks/sec)

CPLEX> Incumbent solution written to file 'C:\Users\llavin\Desktop\test826\logs\tmpwunjkdwf.cplex.sol'.
CPLEX> NOTE: no warmstart specified for MIP iteration, default behavior is true
NOTE: resolving with all competitive generators using storage-only solution to warmstart
Solving...

Welcome to IBM(R) ILOG(R) CPLEX(R) Interactive Optimizer 12.9.0.0
  with Simplex, Mixed Integer & Barrier Optimizers
5725-A06 5725-A29 5724-Y48 5724-Y49 5724-Y54 5724-Y55 5655-Y21
Copyright IBM Corp. 1988, 2019.  All Rights Reserved.

Type 'help' for a list of available commands.
Type 'help' followed by a command name for more
information on commands.

CPLEX> Logfile 'cplex.log' closed.
Logfile 'C:\Users\llavin\Desktop\test826\logs\tmpx5k_dkbu.cplex.log' open.
CPLEX> New value for parallel optimization mode: -1
CPLEX> New value for mixed integer optimality gap tolerance: 0.05
CPLEX> New value for feasibility tolerance: 1e-09
CPLEX> New value for deterministic time limit in ticks: 500000
CPLEX> Problem 'C:\Users\llavin\Desktop\test826\logs\tmprtrwx_cl.pyomo.lp' read.
Read time = 0.23 sec. (14.74 ticks)
CPLEX> MIP start file 'C:\Users\llavin\Desktop\test826\logs\tmp1mjfzqtg.cplex.mst' read.
CPLEX> Problem name         : C:\Users\llavin\Desktop\test826\logs\tmprtrwx_cl.pyomo.lp
Objective sense      : Maximize
Variables            :   54525  [Nneg: 1,  Box: 22720,  Free: 4464,
                                 Binary: 27340]
Objective nonzeros   :    9715
Linear constraints   :  123205  [Less: 41346,  Greater: 59096,  Equal: 22763]
  Nonzeros           :  291718
  RHS nonzeros       :   67460

Variables            : Min LB: -5000.000        Max UB: 1000000.       
Objective nonzeros   : Min   : 0.1000000        Max   : 2500.000       
Linear constraints   :
  Nonzeros           : Min   : 0.1000000        Max   : 1000000.       
  RHS nonzeros       : Min   : 0.1000000        Max   : 1000000.       
CPLEX> CPXPARAM_Parallel                                -1
CPXPARAM_Simplex_Tolerances_Feasibility          1.0000000000000001e-09
CPXPARAM_DetTimeLimit                            500000
CPXPARAM_MIP_Tolerances_MIPGap                   0.050000000000000003
Warning:  No solution found from 1 MIP starts.
Retaining values of one MIP start for possible repair.
Tried aggregator 3 times.
MIP Presolve eliminated 88893 rows and 19911 columns.
MIP Presolve added 3338 rows and 0 columns.
MIP Presolve modified 24784 coefficients.
Aggregator did 12968 substitutions.
Reduced MIP has 24682 rows, 21064 columns, and 70474 nonzeros.
Reduced MIP has 8323 binaries, 0 generals, 0 SOSs, and 0 indicators.
Presolve time = 0.27 sec. (168.26 ticks)
Probing fixed 376 vars, tightened 4114 bounds.
Probing time = 0.06 sec. (18.30 ticks)
Tried aggregator 2 times.
MIP Presolve eliminated 849 rows and 755 columns.
MIP Presolve modified 2999 coefficients.
Aggregator did 36 substitutions.
Reduced MIP has 23797 rows, 20273 columns, and 67908 nonzeros.
Reduced MIP has 7946 binaries, 0 generals, 0 SOSs, and 0 indicators.
Presolve time = 0.11 sec. (91.64 ticks)
Probing fixed 0 vars, tightened 223 bounds.
Probing time = 0.13 sec. (21.93 ticks)
Clique table members: 44569.
MIP emphasis: balance optimality and feasibility.
MIP search method: dynamic search.
Parallel mode: opportunistic, using up to 32 threads.
Root relaxation solution time = 0.47 sec. (665.75 ticks)

        Nodes                                         Cuts/
   Node  Left     Objective  IInf  Best Integer    Best Bound    ItCnt     Gap

      0     0    78354.3907   179                  78354.3907     5773         
      0     0    77695.9019    80                    Cuts: 75     5854         
      0     0    77658.2894    80                    Cuts: 17     5869         
      0     0    77618.5719    82                     Cuts: 7     5874         
      0     0    77618.5719    83                     Cuts: 6     5882         
      0     0    77618.5719    77                     Cuts: 2     5886         
      0     0    77618.5719    77                     Cuts: 2     5888         
Repair heuristic found nothing.
      0    13    infeasible                           Cuts: 5     5980         
Elapsed time = 6.84 sec. (3906.67 ticks, tree = 0.02 MB, solutions = 0)
    392    56    75997.2747    58                  77049.6973     6216         
    897   437    57241.6053    34                  77049.6973    10121         
   1479   950    45815.9340    30                  77049.6973    14650         
   2120  1572    59250.9302    22                  77049.6973    24277         
   2763  1687    infeasible                        77049.6973    26046         
   3368  2257    infeasible                        77049.6973    38612         
   3934  2452    73938.9051    34                  77049.6973    43222         
   4495  2949  -145705.4220    20                  77049.6973    53719         
   5119  3600    72237.3523    40                  77035.7210    65224         
   7202  4838    infeasible                        76781.1270   102356         
Elapsed time = 23.23 sec. (7010.15 ticks, tree = 33.04 MB, solutions = 0)
*  8432+ 4203                        49896.5539    76781.1270            53.88%
  11192  4781    53605.2210     8    50452.2715    76541.5823   152798   51.71%
* 11271  4539      integral     0    50972.4155    76541.5823   150848   50.16%
  11757  6101    59863.6535    39    50972.4155    70275.8140   173746   37.87%
  12718    82    60616.7361    38    50972.4155    69121.9546   174668   35.61%
  13871   161    51016.2841    36    50972.4155    69121.9546   176410   35.61%
  14699   211    52257.8449    45    50972.4155    65511.1981   177283   28.52%
  16066   816    51610.9004    36    50972.4155    65511.1981   186619   28.52%
  18597  1830    55407.6831    42    50972.4155    64252.5156   200188   26.05%
  21451  2465    51953.9740    50    51199.6365    63193.1869   208547   23.43%
  24985  3648    51322.2892    21    51199.6365    62189.8940   223735   21.47%
Elapsed time = 77.30 sec. (19277.30 ticks, tree = 24.46 MB, solutions = 7)
  28584  5385    52084.1013    32    51205.0979    59146.1157   248674   15.51%
  31618 10522    52412.6885    41    51205.0979    58713.3744   325445   14.66%
  34679 10549        cutoff          51205.0979    58294.6836   325747   13.85%
  38060 11860        cutoff          51205.0979    57618.2306   357110   12.52%
  41825 11698    54250.1382    37    51205.0979    56959.8485   353626   11.24%
  45399 15105    52262.0140    33    51205.0979    56959.8485   414064   11.24%
  48488 16040    51303.7435     7    51205.0979    56381.4101   431168   10.11%
  50400 17231    53440.4113    40    51205.0979    56368.7244   448781   10.08%
  51530 21446    52003.3102    33    51205.0979    56368.7244   498920   10.08%
  53167 21159    52285.9089    41    51205.0979    56368.7244   496296   10.08%
Elapsed time = 118.06 sec. (28819.69 ticks, tree = 162.51 MB, solutions = 9)
  56801 21376    51844.6116    34    51205.0979    56368.7244   498405   10.08%
  60557 22377    51951.6366    35    51205.0979    56211.7332   510026    9.78%
  64217 24004        cutoff          51205.0979    56026.9700   525298    9.42%
  68150 27743        cutoff          51205.0979    55915.3842   569692    9.20%
  71875 27528    51510.0188    42    51205.0979    55615.9408   566905    8.61%
* 72982 32697      integral     0    51562.8924    55615.9408   636940    7.86%
  75493 31067    51482.2507    42    51562.8924    55571.3346   610951    7.77%
  78994 32552    55157.8637    48    51562.8924    55431.0281   635673    7.50%
  82729 27377    53976.6995    57    51562.8924    55402.5021   705024    7.45%
  86775 27522    51974.8933    29    51562.8924    55271.0858   706280    7.19%
  90750 34078    54717.3691    52    51562.8924    54977.7342   797589    6.62%
Elapsed time = 168.16 sec. (38358.91 ticks, tree = 274.99 MB, solutions = 10)
  94563 33639    54043.1225    58    51562.8924    54866.7059   792458    6.41%
  97608 33370    54477.8794    53    51562.8924    54659.2997   782646    6.01%
  99407 34205    54425.4443    56    51562.8924    54659.2997   798838    6.01%
 100479 36864        cutoff          51562.8924    54581.0503   866222    5.85%
 101351 37075    51746.8069    27    51562.8924    54553.8677   870680    5.80%
 102184 37007    54284.7611    50    51562.8924    54261.4552   874280    5.23%
 103219 36871    54250.1382    49    51562.8924    54261.4552   865439    5.23%
 103841 37221    52233.3718    56    51562.8924    54261.4552   883860    5.23%

Cover cuts applied:  21
Implied bound cuts applied:  24
Flow cuts applied:  50
Mixed integer rounding cuts applied:  8
Zero-half cuts applied:  1
Gomory fractional cuts applied:  9

Root node processing (before b&c):
  Real time             =    5.47 sec. (3886.01 ticks)
Parallel b&c, 32 threads:
  Real time             =  177.97 sec. (42879.29 ticks)
  Sync time (average)   =    4.03 sec.
  Wait time (average)   =    0.24 sec.
                          ------------
Total (root+branch&cut) =  183.44 sec. (46765.30 ticks)

Solution pool: 10 solutions saved.

MIP - Integer optimal, tolerance (0.05/1e-06):  Objective =  5.1562892391e+04
Current MIP best bound =  5.4140755367e+04 (gap = 2577.86, 5.00%)
Solution time =  183.45 sec.  Iterations = 895941  Nodes = 103965 (37605)
Deterministic time = 46765.46 ticks  (254.92 ticks/sec)

CPLEX> Incumbent solution written to file 'C:\Users\llavin\Desktop\test826\logs\tmpx6en7_7y.cplex.sol'.
CPLEX> Exporting results... 
